p cnf 297 2287
97 120 140 157 290 0
160 225 227 0
167 175 185 0
75 137 164 191 0
125 263 0
50 172 178 0
202 244 0
45 100 124 0
42 113 116 0
106 183 256 0
72 130 186 193 296 0
144 148 194 200 0
205 206 207 208 0
52 109 165 209 0
31 173 179 0
171 197 211 212 0
127 152 203 213 0
101 102 103 122 153 0
93 94 95 114 118 0
81 84 88 162 0
76 77 104 174 0
134 189 0
69 74 146 192 0
63 65 67 0
57 58 60 61 0
53 55 56 107 0
49 131 168 195 0
46 151 0
43 99 149 155 0
39 41 91 158 0
37 79 83 86 112 159 0
129 180 187 0
70 142 199 0
33 34 35 0
32 51 0
30 48 214 0
128 198 204 215 216 0
123 217 218 219 0
98 121 141 150 220 0
85 89 115 221 223 0
78 82 105 161 163 0
136 139 224 0
147 226 228 0
64 66 166 229 0
190 231 232 233 0
59 234 236 238 0
170 240 241 260 0
47 242 243 0
156 245 246 0
40 87 92 117 287 0
177 182 184 247 0
73 188 0
145 249 270 0
251 252 254 257 0
111 210 259 0
-140 -222 0
-140 -167 0
-140 -164 0
-140 -263 0
-140 -261 0
-140 -235 0
-167 -222 0
-164 -222 0
-222 -263 0
-222 -261 0
-222 -235 0
-164 -167 0
-167 -263 0
-167 -261 0
-167 -235 0
-164 -263 0
-164 -261 0
-164 -235 0
-261 -263 0
-235 -263 0
-235 -261 0
-178 -262 0
-262 -265 0
-124 -262 0
-42 -262 0
-38 -262 0
-106 -262 0
-178 -265 0
-124 -178 0
-42 -178 0
-38 -178 0
-106 -178 0
-124 -265 0
-42 -265 0
-38 -265 0
-106 -265 0
-42 -124 0
-38 -124 0
-106 -124 0
-38 -42 0
-42 -106 0
-38 -106 0
-186 -194 0
-186 -205 0
-186 -266 0
-173 -186 0
-171 -186 0
-186 -203 0
-194 -205 0
-194 -266 0
-173 -194 0
-171 -194 0
-194 -203 0
-205 -266 0
-173 -205 0
-171 -205 0
-203 -205 0
-173 -266 0
-171 -266 0
-203 -266 0
-171 -173 0
-173 -203 0
-171 -203 0
-103 -267 0
-88 -103 0
-77 -103 0
-74 -103 0
-67 -103 0
-103 -126 0
-88 -267 0
-77 -267 0
-74 -267 0
-67 -267 0
-126 -267 0
-77 -88 0
-74 -88 0
-67 -88 0
-88 -126 0
-74 -77 0
-67 -77 0
-77 -126 0
-67 -74 0
-74 -126 0
-67 -126 0
-56 -61 0
-49 -61 0
-61 -268 0
-61 -99 0
-61 -158 0
-61 -112 0
-49 -56 0
-56 -268 0
-56 -99 0
-56 -158 0
-56 -112 0
-49 -268 0
-49 -99 0
-49 -158 0
-49 -112 0
-99 -268 0
-158 -268 0
-112 -268 0
-99 -158 0
-99 -112 0
-112 -158 0
-180 -269 0
-201 -269 0
-255 -269 0
-269 -272 0
-51 -269 0
-30 -269 0
-180 -201 0
-180 -255 0
-180 -272 0
-51 -180 0
-30 -180 0
-201 -255 0
-201 -272 0
-51 -201 0
-30 -201 0
-255 -272 0
-51 -255 0
-30 -255 0
-51 -272 0
-30 -272 0
-30 -51 0
-36 -274 0
-259 -274 0
-36 -259 0
-140 -262 0
-140 -186 0
-103 -140 0
-61 -140 0
-140 -269 0
-186 -262 0
-103 -262 0
-61 -262 0
-262 -269 0
-103 -186 0
-61 -186 0
-186 -269 0
-61 -103 0
-103 -269 0
-61 -269 0
-178 -222 0
-194 -222 0
-222 -267 0
-56 -222 0
-180 -222 0
-178 -194 0
-178 -267 0
-56 -178 0
-178 -180 0
-194 -267 0
-56 -194 0
-180 -194 0
-56 -267 0
-180 -267 0
-56 -180 0
-167 -265 0
-167 -205 0
-88 -167 0
-49 -167 0
-167 -201 0
-205 -265 0
-88 -265 0
-49 -265 0
-201 -265 0
-88 -205 0
-49 -205 0
-201 -205 0
-49 -88 0
-88 -201 0
-49 -201 0
-124 -164 0
-164 -266 0
-77 -164 0
-164 -268 0
-164 -255 0
-124 -266 0
-77 -124 0
-124 -268 0
-124 -255 0
-77 -266 0
-266 -268 0
-255 -266 0
-77 -268 0
-77 -255 0
-255 -268 0
-42 -263 0
-173 -263 0
-74 -263 0
-99 -263 0
-263 -272 0
-263 -274 0
-42 -173 0
-42 -74 0
-42 -99 0
-42 -272 0
-42 -274 0
-74 -173 0
-99 -173 0
-173 -272 0
-173 -274 0
-74 -99 0
-74 -272 0
-74 -274 0
-99 -272 0
-99 -274 0
-272 -274 0
-38 -261 0
-171 -261 0
-67 -261 0
-158 -261 0
-51 -261 0
-36 -261 0
-38 -171 0
-38 -67 0
-38 -158 0
-38 -51 0
-36 -38 0
-67 -171 0
-158 -171 0
-51 -171 0
-36 -171 0
-67 -158 0
-51 -67 0
-36 -67 0
-51 -158 0
-36 -158 0
-36 -51 0
-106 -235 0
-203 -235 0
-126 -235 0
-112 -235 0
-30 -235 0
-235 -259 0
-106 -203 0
-106 -126 0
-106 -112 0
-30 -106 0
-106 -259 0
-126 -203 0
-112 -203 0
-30 -203 0
-203 -259 0
-112 -126 0
-30 -126 0
-126 -259 0
-30 -112 0
-112 -259 0
-30 -259 0
-127 -179 0
-118 -122 0
-84 -122 0
-104 -122 0
-122 -192 0
-122 -230 0
-84 -118 0
-104 -118 0
-118 -192 0
-118 -230 0
-84 -104 0
-84 -192 0
-84 -230 0
-104 -192 0
-104 -230 0
-192 -230 0
-60 -276 0
-60 -168 0
-60 -133 0
-43 -60 0
-60 -86 0
-168 -276 0
-133 -276 0
-43 -276 0
-86 -276 0
-133 -168 0
-43 -168 0
-86 -168 0
-43 -133 0
-86 -133 0
-43 -86 0
-70 -277 0
-250 -277 0
-258 -277 0
-277 -278 0
-48 -277 0
-70 -250 0
-70 -258 0
-70 -278 0
-48 -70 0
-250 -258 0
-250 -278 0
-48 -250 0
-258 -278 0
-48 -258 0
-48 -278 0
-198 -279 0
-141 -198 0
-198 -221 0
-141 -279 0
-221 -279 0
-141 -221 0
-166 -234 0
-166 -264 0
-166 -260 0
-234 -264 0
-234 -260 0
-260 -264 0
-60 -122 0
-122 -277 0
-122 -198 0
-122 -166 0
-60 -277 0
-60 -198 0
-60 -166 0
-198 -277 0
-166 -277 0
-166 -198 0
-118 -276 0
-70 -118 0
-118 -279 0
-118 -234 0
-70 -276 0
-276 -279 0
-234 -276 0
-70 -279 0
-70 -234 0
-234 -279 0
-84 -168 0
-84 -250 0
-84 -141 0
-84 -264 0
-168 -250 0
-141 -168 0
-168 -264 0
-141 -250 0
-250 -264 0
-141 -264 0
-104 -133 0
-104 -258 0
-104 -221 0
-104 -260 0
-133 -258 0
-133 -221 0
-133 -260 0
-221 -258 0
-258 -260 0
-221 -260 0
-179 -192 0
-43 -179 0
-179 -278 0
-43 -192 0
-192 -278 0
-43 -278 0
-127 -230 0
-86 -127 0
-48 -127 0
-86 -230 0
-48 -230 0
-48 -86 0
-206 -209 0
-95 -280 0
-280 -281 0
-95 -281 0
-55 -282 0
-55 -83 0
-83 -282 0
-154 -217 0
-217 -220 0
-82 -217 0
-154 -220 0
-82 -154 0
-82 -220 0
-59 -231 0
-108 -231 0
-196 -231 0
-59 -108 0
-59 -196 0
-108 -196 0
-55 -280 0
-217 -280 0
-231 -280 0
-55 -217 0
-55 -231 0
-217 -231 0
-95 -282 0
-95 -154 0
-59 -95 0
-154 -282 0
-59 -282 0
-59 -154 0
-206 -220 0
-108 -206 0
-108 -220 0
-82 -209 0
-196 -209 0
-82 -196 0
-83 -281 0
-135 -290 0
-160 -290 0
-239 -290 0
-290 -292 0
-135 -160 0
-135 -239 0
-135 -292 0
-160 -239 0
-160 -292 0
-239 -292 0
-144 -296 0
-253 -296 0
-211 -296 0
-213 -296 0
-144 -253 0
-144 -211 0
-144 -213 0
-211 -253 0
-213 -253 0
-211 -213 0
-102 -283 0
-94 -102 0
-94 -283 0
-215 -218 0
-215 -284 0
-163 -215 0
-215 -224 0
-147 -215 0
-218 -284 0
-163 -218 0
-218 -224 0
-147 -218 0
-163 -284 0
-224 -284 0
-147 -284 0
-163 -224 0
-147 -163 0
-147 -224 0
-66 -232 0
-66 -236 0
-66 -132 0
-66 -242 0
-66 -156 0
-232 -236 0
-132 -232 0
-232 -242 0
-156 -232 0
-132 -236 0
-236 -242 0
-156 -236 0
-132 -242 0
-132 -156 0
-156 -242 0
-80 -92 0
-92 -247 0
-92 -251 0
-92 -285 0
-92 -210 0
-80 -247 0
-80 -251 0
-80 -285 0
-80 -210 0
-247 -251 0
-247 -285 0
-210 -247 0
-251 -285 0
-210 -251 0
-210 -285 0
-290 -296 0
-102 -290 0
-215 -290 0
-66 -290 0
-92 -290 0
-102 -296 0
-215 -296 0
-66 -296 0
-92 -296 0
-102 -215 0
-66 -102 0
-92 -102 0
-66 -215 0
-92 -215 0
-66 -92 0
-135 -144 0
-135 -283 0
-135 -218 0
-135 -232 0
-80 -135 0
-144 -283 0
-144 -218 0
-144 -232 0
-80 -144 0
-218 -283 0
-232 -283 0
-80 -283 0
-218 -232 0
-80 -218 0
-80 -232 0
-160 -253 0
-94 -160 0
-160 -284 0
-160 -236 0
-160 -247 0
-94 -253 0
-253 -284 0
-236 -253 0
-247 -253 0
-94 -284 0
-94 -236 0
-94 -247 0
-236 -284 0
-247 -284 0
-236 -247 0
-132 -163 0
-163 -251 0
-132 -251 0
-211 -239 0
-224 -239 0
-239 -242 0
-239 -285 0
-211 -224 0
-211 -242 0
-211 -285 0
-224 -242 0
-224 -285 0
-242 -285 0
-213 -292 0
-147 -292 0
-156 -292 0
-210 -292 0
-147 -213 0
-156 -213 0
-210 -213 0
-147 -156 0
-147 -210 0
-156 -210 0
-90 -157 0
-157 -175 0
-75 -157 0
-68 -157 0
-125 -157 0
-62 -157 0
-90 -175 0
-75 -90 0
-68 -90 0
-90 -125 0
-62 -90 0
-75 -175 0
-68 -175 0
-125 -175 0
-62 -175 0
-68 -75 0
-75 -125 0
-62 -75 0
-68 -125 0
-62 -68 0
-62 -125 0
-50 -286 0
-286 -288 0
-100 -286 0
-181 -286 0
-113 -286 0
-271 -286 0
-50 -288 0
-50 -100 0
-50 -181 0
-50 -113 0
-50 -271 0
-100 -288 0
-181 -288 0
-113 -288 0
-271 -288 0
-100 -181 0
-100 -113 0
-100 -271 0
-113 -181 0
-181 -271 0
-113 -271 0
-130 -200 0
-130 -207 0
-130 -273 0
-52 -130 0
-31 -130 0
-130 -212 0
-200 -207 0
-200 -273 0
-52 -200 0
-31 -200 0
-200 -212 0
-207 -273 0
-52 -207 0
-31 -207 0
-207 -212 0
-52 -273 0
-31 -273 0
-212 -273 0
-31 -52 0
-52 -212 0
-31 -212 0
-275 -289 0
-35 -289 0
-35 -275 0
-216 -219 0
-150 -216 0
-115 -216 0
-161 -216 0
-216 -291 0
-136 -216 0
-150 -219 0
-115 -219 0
-161 -219 0
-219 -291 0
-136 -219 0
-115 -150 0
-150 -161 0
-150 -291 0
-136 -150 0
-115 -161 0
-115 -291 0
-115 -136 0
-161 -291 0
-136 -161 0
-136 -291 0
-64 -233 0
-54 -64 0
-64 -240 0
-64 -293 0
-64 -294 0
-47 -64 0
-54 -233 0
-233 -240 0
-233 -293 0
-233 -294 0
-47 -233 0
-54 -240 0
-54 -293 0
-54 -294 0
-47 -54 0
-240 -293 0
-240 -294 0
-47 -240 0
-293 -294 0
-47 -293 0
-47 -294 0
-40 -295 0
-40 -188 0
-40 -145 0
-40 -252 0
-40 -297 0
-40 -143 0
-188 -295 0
-145 -295 0
-252 -295 0
-295 -297 0
-143 -295 0
-145 -188 0
-188 -252 0
-188 -297 0
-143 -188 0
-145 -252 0
-145 -297 0
-143 -145 0
-252 -297 0
-143 -252 0
-143 -297 0
-157 -286 0
-130 -157 0
-157 -216 0
-64 -157 0
-40 -157 0
-130 -286 0
-216 -286 0
-64 -286 0
-40 -286 0
-130 -216 0
-64 -130 0
-40 -130 0
-64 -216 0
-40 -216 0
-40 -64 0
-50 -90 0
-90 -200 0
-90 -219 0
-90 -233 0
-90 -295 0
-50 -200 0
-50 -219 0
-50 -233 0
-50 -295 0
-200 -219 0
-200 -233 0
-200 -295 0
-219 -233 0
-219 -295 0
-233 -295 0
-175 -288 0
-175 -207 0
-175 -289 0
-150 -175 0
-54 -175 0
-175 -188 0
-207 -288 0
-288 -289 0
-150 -288 0
-54 -288 0
-188 -288 0
-207 -289 0
-150 -207 0
-54 -207 0
-188 -207 0
-150 -289 0
-54 -289 0
-188 -289 0
-54 -150 0
-150 -188 0
-54 -188 0
-75 -100 0
-75 -273 0
-75 -275 0
-75 -115 0
-75 -240 0
-75 -145 0
-100 -273 0
-100 -275 0
-100 -115 0
-100 -240 0
-100 -145 0
-273 -275 0
-115 -273 0
-240 -273 0
-145 -273 0
-115 -275 0
-240 -275 0
-145 -275 0
-115 -240 0
-115 -145 0
-145 -240 0
-68 -181 0
-52 -68 0
-35 -68 0
-68 -161 0
-68 -293 0
-68 -252 0
-52 -181 0
-35 -181 0
-161 -181 0
-181 -293 0
-181 -252 0
-35 -52 0
-52 -161 0
-52 -293 0
-52 -252 0
-35 -161 0
-35 -293 0
-35 -252 0
-161 -293 0
-161 -252 0
-252 -293 0
-113 -125 0
-31 -125 0
-125 -291 0
-125 -294 0
-125 -297 0
-31 -113 0
-113 -291 0
-113 -294 0
-113 -297 0
-31 -291 0
-31 -294 0
-31 -297 0
-291 -294 0
-291 -297 0
-294 -297 0
-62 -271 0
-62 -212 0
-62 -136 0
-47 -62 0
-62 -143 0
-212 -271 0
-136 -271 0
-47 -271 0
-143 -271 0
-136 -212 0
-47 -212 0
-143 -212 0
-47 -136 0
-136 -143 0
-47 -143 0
-120 -225 0
-120 -191 0
-120 -237 0
-120 -169 0
-29 -120 0
-191 -225 0
-225 -237 0
-169 -225 0
-29 -225 0
-191 -237 0
-169 -191 0
-29 -191 0
-169 -237 0
-29 -237 0
-29 -169 0
-27 -244 0
-27 -45 0
-27 -176 0
-27 -248 0
-27 -256 0
-45 -244 0
-176 -244 0
-244 -248 0
-244 -256 0
-45 -176 0
-45 -248 0
-45 -256 0
-176 -248 0
-176 -256 0
-248 -256 0
-72 -110 0
-25 -72 0
-72 -109 0
-72 -197 0
-72 -152 0
-25 -110 0
-109 -110 0
-110 -197 0
-110 -152 0
-25 -109 0
-25 -197 0
-25 -152 0
-109 -197 0
-109 -152 0
-152 -197 0
-37 -41 0
-24 -204 0
-89 -204 0
-78 -204 0
-24 -89 0
-24 -78 0
-78 -89 0
-182 -287 0
-270 -287 0
-254 -287 0
-182 -270 0
-182 -254 0
-254 -270 0
-27 -120 0
-72 -120 0
-120 -204 0
-120 -287 0
-27 -72 0
-27 -204 0
-27 -287 0
-72 -204 0
-72 -287 0
-204 -287 0
-225 -244 0
-110 -225 0
-24 -225 0
-182 -225 0
-110 -244 0
-24 -244 0
-182 -244 0
-24 -110 0
-110 -182 0
-24 -182 0
-45 -191 0
-25 -191 0
-89 -191 0
-191 -270 0
-25 -45 0
-45 -89 0
-45 -270 0
-25 -89 0
-25 -270 0
-89 -270 0
-176 -237 0
-109 -237 0
-78 -237 0
-237 -254 0
-109 -176 0
-78 -176 0
-176 -254 0
-78 -109 0
-109 -254 0
-78 -254 0
-169 -248 0
-169 -197 0
-41 -169 0
-197 -248 0
-41 -248 0
-41 -197 0
-29 -256 0
-29 -152 0
-29 -37 0
-152 -256 0
-37 -256 0
-37 -152 0
-97 -138 0
-97 -227 0
-97 -185 0
-97 -137 0
-23 -97 0
-138 -227 0
-138 -185 0
-137 -138 0
-23 -138 0
-185 -227 0
-137 -227 0
-23 -227 0
-137 -185 0
-23 -185 0
-23 -137 0
-148 -193 0
-22 -193 0
-193 -208 0
-21 -193 0
-165 -193 0
-22 -148 0
-148 -208 0
-21 -148 0
-148 -165 0
-22 -208 0
-21 -22 0
-22 -165 0
-21 -208 0
-165 -208 0
-21 -165 0
-20 -153 0
-93 -153 0
-81 -153 0
-153 -174 0
-153 -189 0
-69 -153 0
-19 -153 0
-20 -93 0
-20 -81 0
-20 -174 0
-20 -189 0
-20 -69 0
-19 -20 0
-81 -93 0
-93 -174 0
-93 -189 0
-69 -93 0
-19 -93 0
-81 -174 0
-81 -189 0
-69 -81 0
-19 -81 0
-174 -189 0
-69 -174 0
-19 -174 0
-69 -189 0
-19 -189 0
-19 -69 0
-58 -107 0
-18 -58 0
-58 -195 0
-17 -58 0
-58 -151 0
-58 -149 0
-58 -159 0
-18 -107 0
-107 -195 0
-17 -107 0
-107 -151 0
-107 -149 0
-107 -159 0
-18 -195 0
-17 -18 0
-18 -151 0
-18 -149 0
-18 -159 0
-17 -195 0
-151 -195 0
-149 -195 0
-159 -195 0
-17 -151 0
-17 -149 0
-17 -159 0
-149 -151 0
-151 -159 0
-149 -159 0
-16 -129 0
-16 -199 0
-15 -16 0
-14 -16 0
-16 -34 0
-13 -16 0
-16 -214 0
-129 -199 0
-15 -129 0
-14 -129 0
-34 -129 0
-13 -129 0
-129 -214 0
-15 -199 0
-14 -199 0
-34 -199 0
-13 -199 0
-199 -214 0
-14 -15 0
-15 -34 0
-13 -15 0
-15 -214 0
-14 -34 0
-13 -14 0
-14 -214 0
-13 -34 0
-34 -214 0
-13 -214 0
-123 -128 0
-12 -128 0
-121 -128 0
-85 -128 0
-105 -128 0
-119 -128 0
-128 -226 0
-12 -123 0
-121 -123 0
-85 -123 0
-105 -123 0
-119 -123 0
-123 -226 0
-12 -121 0
-12 -85 0
-12 -105 0
-12 -119 0
-12 -226 0
-85 -121 0
-105 -121 0
-119 -121 0
-121 -226 0
-85 -105 0
-85 -119 0
-85 -226 0
-105 -119 0
-105 -226 0
-119 -226 0
-190 -229 0
-229 -238 0
-11 -229 0
-170 -229 0
-28 -229 0
-26 -229 0
-229 -245 0
-190 -238 0
-11 -190 0
-170 -190 0
-28 -190 0
-26 -190 0
-190 -245 0
-11 -238 0
-170 -238 0
-28 -238 0
-26 -238 0
-238 -245 0
-11 -170 0
-11 -28 0
-11 -26 0
-11 -245 0
-28 -170 0
-26 -170 0
-170 -245 0
-26 -28 0
-28 -245 0
-26 -245 0
-44 -87 0
-87 -177 0
-73 -87 0
-87 -249 0
-87 -257 0
-71 -87 0
-87 -111 0
-44 -177 0
-44 -73 0
-44 -249 0
-44 -257 0
-44 -71 0
-44 -111 0
-73 -177 0
-177 -249 0
-177 -257 0
-71 -177 0
-111 -177 0
-73 -249 0
-73 -257 0
-71 -73 0
-73 -111 0
-249 -257 0
-71 -249 0
-111 -249 0
-71 -257 0
-111 -257 0
-71 -111 0
-97 -193 0
-97 -153 0
-58 -97 0
-16 -97 0
-97 -128 0
-97 -229 0
-87 -97 0
-153 -193 0
-58 -193 0
-16 -193 0
-128 -193 0
-193 -229 0
-87 -193 0
-58 -153 0
-16 -153 0
-128 -153 0
-153 -229 0
-87 -153 0
-16 -58 0
-58 -128 0
-58 -229 0
-58 -87 0
-16 -128 0
-16 -229 0
-16 -87 0
-128 -229 0
-87 -128 0
-87 -229 0
-138 -148 0
-20 -138 0
-107 -138 0
-129 -138 0
-123 -138 0
-138 -190 0
-44 -138 0
-20 -148 0
-107 -148 0
-129 -148 0
-123 -148 0
-148 -190 0
-44 -148 0
-20 -107 0
-20 -129 0
-20 -123 0
-20 -190 0
-20 -44 0
-107 -129 0
-107 -123 0
-107 -190 0
-44 -107 0
-123 -129 0
-129 -190 0
-44 -129 0
-123 -190 0
-44 -123 0
-44 -190 0
-22 -227 0
-93 -227 0
-18 -227 0
-199 -227 0
-12 -227 0
-227 -238 0
-177 -227 0
-22 -93 0
-18 -22 0
-22 -199 0
-12 -22 0
-22 -238 0
-22 -177 0
-18 -93 0
-93 -199 0
-12 -93 0
-93 -238 0
-93 -177 0
-18 -199 0
-12 -18 0
-18 -238 0
-18 -177 0
-12 -199 0
-199 -238 0
-177 -199 0
-12 -238 0
-12 -177 0
-177 -238 0
-185 -208 0
-81 -185 0
-185 -195 0
-15 -185 0
-121 -185 0
-11 -185 0
-73 -185 0
-81 -208 0
-195 -208 0
-15 -208 0
-121 -208 0
-11 -208 0
-73 -208 0
-81 -195 0
-15 -81 0
-81 -121 0
-11 -81 0
-73 -81 0
-15 -195 0
-121 -195 0
-11 -195 0
-73 -195 0
-15 -121 0
-11 -15 0
-15 -73 0
-11 -121 0
-73 -121 0
-11 -73 0
-21 -137 0
-137 -174 0
-17 -137 0
-14 -137 0
-85 -137 0
-137 -170 0
-137 -249 0
-21 -174 0
-17 -21 0
-14 -21 0
-21 -85 0
-21 -170 0
-21 -249 0
-17 -174 0
-14 -174 0
-85 -174 0
-170 -174 0
-174 -249 0
-14 -17 0
-17 -85 0
-17 -170 0
-17 -249 0
-14 -85 0
-14 -170 0
-14 -249 0
-85 -170 0
-85 -249 0
-170 -249 0
-23 -165 0
-23 -189 0
-23 -151 0
-23 -34 0
-23 -105 0
-23 -28 0
-23 -257 0
-165 -189 0
-151 -165 0
-34 -165 0
-105 -165 0
-28 -165 0
-165 -257 0
-151 -189 0
-34 -189 0
-105 -189 0
-28 -189 0
-189 -257 0
-34 -151 0
-105 -151 0
-28 -151 0
-151 -257 0
-34 -105 0
-28 -34 0
-34 -257 0
-28 -105 0
-105 -257 0
-28 -257 0
-69 -149 0
-13 -69 0
-69 -119 0
-26 -69 0
-69 -71 0
-13 -149 0
-119 -149 0
-26 -149 0
-71 -149 0
-13 -119 0
-13 -26 0
-13 -71 0
-26 -119 0
-71 -119 0
-26 -71 0
-19 -159 0
-19 -214 0
-19 -226 0
-19 -245 0
-19 -111 0
-159 -214 0
-159 -226 0
-159 -245 0
-111 -159 0
-214 -226 0
-214 -245 0
-111 -214 0
-226 -245 0
-111 -226 0
-111 -245 0
-10 -116 0
-116 -183 0
-10 -183 0
-76 -162 0
-146 -162 0
-65 -162 0
-9 -162 0
-76 -146 0
-65 -76 0
-9 -76 0
-65 -146 0
-9 -146 0
-9 -65 0
-8 -131 0
-131 -155 0
-91 -131 0
-79 -131 0
-8 -155 0
-8 -91 0
-8 -79 0
-91 -155 0
-79 -155 0
-79 -91 0
-98 -223 0
-96 -98 0
-98 -139 0
-98 -228 0
-96 -223 0
-139 -223 0
-223 -228 0
-96 -139 0
-96 -228 0
-139 -228 0
-7 -241 0
-6 -7 0
-7 -243 0
-7 -246 0
-6 -241 0
-241 -243 0
-241 -246 0
-6 -243 0
-6 -246 0
-243 -246 0
-131 -162 0
-98 -162 0
-7 -162 0
-98 -131 0
-7 -131 0
-7 -98 0
-8 -76 0
-76 -223 0
-76 -241 0
-8 -223 0
-8 -241 0
-223 -241 0
-116 -146 0
-116 -155 0
-96 -116 0
-6 -116 0
-146 -155 0
-96 -146 0
-6 -146 0
-96 -155 0
-6 -155 0
-6 -96 0
-10 -65 0
-10 -91 0
-10 -139 0
-10 -243 0
-65 -91 0
-65 -139 0
-65 -243 0
-91 -139 0
-91 -243 0
-139 -243 0
-9 -183 0
-79 -183 0
-183 -228 0
-183 -246 0
-9 -79 0
-9 -228 0
-9 -246 0
-79 -228 0
-79 -246 0
-228 -246 0
-5 -172 0
-5 -202 0
-172 -202 0
-4 -101 0
-101 -114 0
-101 -134 0
-63 -101 0
-4 -114 0
-4 -134 0
-4 -63 0
-114 -134 0
-63 -114 0
-63 -134 0
-53 -57 0
-3 -57 0
-46 -57 0
-39 -57 0
-3 -53 0
-46 -53 0
-39 -53 0
-3 -46 0
-3 -39 0
-39 -46 0
-2 -187 0
-2 -142 0
-2 -33 0
-2 -32 0
-142 -187 0
-33 -187 0
-32 -187 0
-33 -142 0
-32 -142 0
-32 -33 0
-1 -117 0
-117 -184 0
-1 -184 0
-5 -101 0
-5 -57 0
-2 -5 0
-5 -117 0
-57 -101 0
-2 -101 0
-101 -117 0
-2 -57 0
-57 -117 0
-2 -117 0
-4 -172 0
-53 -172 0
-172 -187 0
-1 -172 0
-4 -53 0
-4 -187 0
-1 -4 0
-53 -187 0
-1 -53 0
-1 -187 0
-114 -202 0
-3 -202 0
-142 -202 0
-184 -202 0
-3 -114 0
-114 -142 0
-114 -184 0
-3 -142 0
-3 -184 0
-142 -184 0
-46 -134 0
-33 -134 0
-33 -46 0
-39 -63 0
-32 -63 0
-32 -39 0
-140 -222 0
-140 -262 0
-140 -178 0
-140 -186 0
-140 -194 0
-222 -262 0
-178 -222 0
-186 -222 0
-194 -222 0
-178 -262 0
-186 -262 0
-194 -262 0
-178 -186 0
-178 -194 0
-186 -194 0
-135 -290 0
-160 -290 0
-290 -296 0
-144 -290 0
-253 -290 0
-135 -160 0
-135 -296 0
-135 -144 0
-135 -253 0
-160 -296 0
-144 -160 0
-160 -253 0
-144 -296 0
-253 -296 0
-144 -253 0
-90 -157 0
-157 -286 0
-50 -157 0
-130 -157 0
-157 -200 0
-90 -286 0
-50 -90 0
-90 -130 0
-90 -200 0
-50 -286 0
-130 -286 0
-200 -286 0
-50 -130 0
-50 -200 0
-130 -200 0
-120 -225 0
-27 -120 0
-120 -244 0
-72 -120 0
-110 -120 0
-27 -225 0
-225 -244 0
-72 -225 0
-110 -225 0
-27 -244 0
-27 -72 0
-27 -110 0
-72 -244 0
-110 -244 0
-72 -110 0
-97 -138 0
-97 -227 0
-97 -193 0
-97 -148 0
-22 -97 0
-138 -227 0
-138 -193 0
-138 -148 0
-22 -138 0
-193 -227 0
-148 -227 0
-22 -227 0
-148 -193 0
-22 -193 0
-22 -148 0
-5 -172 0
-5 -202 0
-172 -202 0
-164 -167 0
-167 -265 0
-124 -167 0
-167 -205 0
-167 -266 0
-164 -265 0
-124 -164 0
-164 -205 0
-164 -266 0
-124 -265 0
-205 -265 0
-265 -266 0
-124 -205 0
-124 -266 0
-205 -266 0
-206 -209 0
-75 -175 0
-68 -175 0
-175 -288 0
-100 -175 0
-175 -181 0
-175 -207 0
-175 -273 0
-52 -175 0
-68 -75 0
-75 -288 0
-75 -100 0
-75 -181 0
-75 -207 0
-75 -273 0
-52 -75 0
-68 -288 0
-68 -100 0
-68 -181 0
-68 -207 0
-68 -273 0
-52 -68 0
-100 -288 0
-181 -288 0
-207 -288 0
-273 -288 0
-52 -288 0
-100 -181 0
-100 -207 0
-100 -273 0
-52 -100 0
-181 -207 0
-181 -273 0
-52 -181 0
-207 -273 0
-52 -207 0
-52 -273 0
-191 -237 0
-45 -191 0
-176 -191 0
-25 -191 0
-109 -191 0
-45 -237 0
-176 -237 0
-25 -237 0
-109 -237 0
-45 -176 0
-25 -45 0
-45 -109 0
-25 -176 0
-109 -176 0
-25 -109 0
-137 -185 0
-23 -185 0
-185 -208 0
-21 -185 0
-165 -185 0
-23 -137 0
-137 -208 0
-21 -137 0
-137 -165 0
-23 -208 0
-21 -23 0
-23 -165 0
-21 -208 0
-165 -208 0
-21 -165 0
-261 -263 0
-235 -263 0
-42 -263 0
-38 -263 0
-106 -263 0
-173 -263 0
-171 -263 0
-203 -263 0
-235 -261 0
-42 -261 0
-38 -261 0
-106 -261 0
-173 -261 0
-171 -261 0
-203 -261 0
-42 -235 0
-38 -235 0
-106 -235 0
-173 -235 0
-171 -235 0
-203 -235 0
-38 -42 0
-42 -106 0
-42 -173 0
-42 -171 0
-42 -203 0
-38 -106 0
-38 -173 0
-38 -171 0
-38 -203 0
-106 -173 0
-106 -171 0
-106 -203 0
-171 -173 0
-173 -203 0
-171 -203 0
-127 -179 0
-239 -292 0
-211 -239 0
-213 -239 0
-211 -292 0
-213 -292 0
-211 -213 0
-62 -125 0
-113 -125 0
-125 -271 0
-31 -125 0
-125 -212 0
-62 -113 0
-62 -271 0
-31 -62 0
-62 -212 0
-113 -271 0
-31 -113 0
-113 -212 0
-31 -271 0
-212 -271 0
-31 -212 0
-29 -169 0
-169 -248 0
-169 -256 0
-169 -197 0
-152 -169 0
-29 -248 0
-29 -256 0
-29 -197 0
-29 -152 0
-248 -256 0
-197 -248 0
-152 -248 0
-197 -256 0
-152 -256 0
-152 -197 0
-10 -116 0
-116 -183 0
-10 -183 0
-103 -267 0
-61 -103 0
-56 -103 0
-103 -269 0
-103 -180 0
-61 -267 0
-56 -267 0
-267 -269 0
-180 -267 0
-56 -61 0
-61 -269 0
-61 -180 0
-56 -269 0
-56 -180 0
-180 -269 0
-118 -122 0
-60 -122 0
-122 -276 0
-122 -277 0
-70 -122 0
-60 -118 0
-118 -276 0
-118 -277 0
-70 -118 0
-60 -276 0
-60 -277 0
-60 -70 0
-276 -277 0
-70 -276 0
-70 -277 0
-95 -280 0
-55 -280 0
-280 -282 0
-55 -95 0
-95 -282 0
-55 -282 0
-102 -283 0
-94 -102 0
-94 -283 0
-20 -153 0
-93 -153 0
-58 -153 0
-107 -153 0
-18 -153 0
-16 -153 0
-129 -153 0
-153 -199 0
-20 -93 0
-20 -58 0
-20 -107 0
-18 -20 0
-16 -20 0
-20 -129 0
-20 -199 0
-58 -93 0
-93 -107 0
-18 -93 0
-16 -93 0
-93 -129 0
-93 -199 0
-58 -107 0
-18 -58 0
-16 -58 0
-58 -129 0
-58 -199 0
-18 -107 0
-16 -107 0
-107 -129 0
-107 -199 0
-16 -18 0
-18 -129 0
-18 -199 0
-16 -129 0
-16 -199 0
-129 -199 0
-4 -101 0
-101 -114 0
-57 -101 0
-53 -101 0
-3 -101 0
-2 -101 0
-101 -187 0
-101 -142 0
-4 -114 0
-4 -57 0
-4 -53 0
-3 -4 0
-2 -4 0
-4 -187 0
-4 -142 0
-57 -114 0
-53 -114 0
-3 -114 0
-2 -114 0
-114 -187 0
-114 -142 0
-53 -57 0
-3 -57 0
-2 -57 0
-57 -187 0
-57 -142 0
-3 -53 0
-2 -53 0
-53 -187 0
-53 -142 0
-2 -3 0
-3 -187 0
-3 -142 0
-2 -187 0
-2 -142 0
-142 -187 0
-77 -88 0
-49 -88 0
-88 -268 0
-88 -201 0
-88 -255 0
-49 -77 0
-77 -268 0
-77 -201 0
-77 -255 0
-49 -268 0
-49 -201 0
-49 -255 0
-201 -268 0
-255 -268 0
-201 -255 0
-84 -104 0
-84 -168 0
-84 -133 0
-84 -250 0
-84 -258 0
-104 -168 0
-104 -133 0
-104 -250 0
-104 -258 0
-133 -168 0
-168 -250 0
-168 -258 0
-133 -250 0
-133 -258 0
-250 -258 0
-275 -289 0
-35 -289 0
-35 -275 0
-81 -174 0
-81 -189 0
-81 -195 0
-17 -81 0
-81 -151 0
-15 -81 0
-14 -81 0
-34 -81 0
-174 -189 0
-174 -195 0
-17 -174 0
-151 -174 0
-15 -174 0
-14 -174 0
-34 -174 0
-189 -195 0
-17 -189 0
-151 -189 0
-15 -189 0
-14 -189 0
-34 -189 0
-17 -195 0
-151 -195 0
-15 -195 0
-14 -195 0
-34 -195 0
-17 -151 0
-15 -17 0
-14 -17 0
-17 -34 0
-15 -151 0
-14 -151 0
-34 -151 0
-14 -15 0
-15 -34 0
-14 -34 0
-76 -162 0
-131 -162 0
-8 -162 0
-76 -131 0
-8 -76 0
-8 -131 0
-46 -134 0
-33 -134 0
-33 -46 0
-67 -74 0
-74 -126 0
-74 -99 0
-74 -158 0
-74 -112 0
-74 -272 0
-51 -74 0
-30 -74 0
-67 -126 0
-67 -99 0
-67 -158 0
-67 -112 0
-67 -272 0
-51 -67 0
-30 -67 0
-99 -126 0
-126 -158 0
-112 -126 0
-126 -272 0
-51 -126 0
-30 -126 0
-99 -158 0
-99 -112 0
-99 -272 0
-51 -99 0
-30 -99 0
-112 -158 0
-158 -272 0
-51 -158 0
-30 -158 0
-112 -272 0
-51 -112 0
-30 -112 0
-51 -272 0
-30 -272 0
-30 -51 0
-192 -230 0
-43 -192 0
-86 -192 0
-192 -278 0
-48 -192 0
-43 -230 0
-86 -230 0
-230 -278 0
-48 -230 0
-43 -86 0
-43 -278 0
-43 -48 0
-86 -278 0
-48 -86 0
-48 -278 0
-83 -281 0
-37 -41 0
-19 -69 0
-69 -149 0
-69 -159 0
-13 -69 0
-69 -214 0
-19 -149 0
-19 -159 0
-13 -19 0
-19 -214 0
-149 -159 0
-13 -149 0
-149 -214 0
-13 -159 0
-159 -214 0
-13 -214 0
-65 -146 0
-9 -146 0
-146 -155 0
-91 -146 0
-79 -146 0
-9 -65 0
-65 -155 0
-65 -91 0
-65 -79 0
-9 -155 0
-9 -91 0
-9 -79 0
-91 -155 0
-79 -155 0
-79 -91 0
-39 -63 0
-32 -63 0
-32 -39 0
-198 -279 0
-166 -198 0
-198 -234 0
-166 -279 0
-234 -279 0
-166 -234 0
-154 -217 0
-217 -231 0
-59 -217 0
-154 -231 0
-59 -154 0
-59 -231 0
-215 -218 0
-215 -284 0
-66 -215 0
-215 -232 0
-215 -236 0
-92 -215 0
-80 -215 0
-215 -247 0
-218 -284 0
-66 -218 0
-218 -232 0
-218 -236 0
-92 -218 0
-80 -218 0
-218 -247 0
-66 -284 0
-232 -284 0
-236 -284 0
-92 -284 0
-80 -284 0
-247 -284 0
-66 -232 0
-66 -236 0
-66 -92 0
-66 -80 0
-66 -247 0
-232 -236 0
-92 -232 0
-80 -232 0
-232 -247 0
-92 -236 0
-80 -236 0
-236 -247 0
-80 -92 0
-92 -247 0
-80 -247 0
-216 -219 0
-64 -216 0
-216 -233 0
-40 -216 0
-216 -295 0
-64 -219 0
-219 -233 0
-40 -219 0
-219 -295 0
-64 -233 0
-40 -64 0
-64 -295 0
-40 -233 0
-233 -295 0
-40 -295 0
-24 -204 0
-204 -287 0
-182 -204 0
-24 -287 0
-24 -182 0
-182 -287 0
-123 -128 0
-12 -128 0
-128 -229 0
-128 -190 0
-128 -238 0
-87 -128 0
-44 -128 0
-128 -177 0
-12 -123 0
-123 -229 0
-123 -190 0
-123 -238 0
-87 -123 0
-44 -123 0
-123 -177 0
-12 -229 0
-12 -190 0
-12 -238 0
-12 -87 0
-12 -44 0
-12 -177 0
-190 -229 0
-229 -238 0
-87 -229 0
-44 -229 0
-177 -229 0
-190 -238 0
-87 -190 0
-44 -190 0
-177 -190 0
-87 -238 0
-44 -238 0
-177 -238 0
-44 -87 0
-87 -177 0
-44 -177 0
-1 -117 0
-117 -184 0
-1 -184 0
-141 -221 0
-141 -264 0
-141 -260 0
-221 -264 0
-221 -260 0
-260 -264 0
-82 -220 0
-108 -220 0
-196 -220 0
-82 -108 0
-82 -196 0
-108 -196 0
-132 -163 0
-163 -251 0
-132 -251 0
-115 -150 0
-150 -161 0
-54 -150 0
-150 -240 0
-150 -293 0
-150 -188 0
-145 -150 0
-150 -252 0
-115 -161 0
-54 -115 0
-115 -240 0
-115 -293 0
-115 -188 0
-115 -145 0
-115 -252 0
-54 -161 0
-161 -240 0
-161 -293 0
-161 -188 0
-145 -161 0
-161 -252 0
-54 -240 0
-54 -293 0
-54 -188 0
-54 -145 0
-54 -252 0
-240 -293 0
-188 -240 0
-145 -240 0
-240 -252 0
-188 -293 0
-145 -293 0
-252 -293 0
-145 -188 0
-188 -252 0
-145 -252 0
-78 -89 0
-89 -270 0
-89 -254 0
-78 -270 0
-78 -254 0
-254 -270 0
-85 -121 0
-105 -121 0
-11 -121 0
-121 -170 0
-28 -121 0
-73 -121 0
-121 -249 0
-121 -257 0
-85 -105 0
-11 -85 0
-85 -170 0
-28 -85 0
-73 -85 0
-85 -249 0
-85 -257 0
-11 -105 0
-105 -170 0
-28 -105 0
-73 -105 0
-105 -249 0
-105 -257 0
-11 -170 0
-11 -28 0
-11 -73 0
-11 -249 0
-11 -257 0
-28 -170 0
-73 -170 0
-170 -249 0
-170 -257 0
-28 -73 0
-28 -249 0
-28 -257 0
-73 -249 0
-73 -257 0
-249 -257 0
-98 -223 0
-7 -98 0
-98 -241 0
-7 -223 0
-223 -241 0
-7 -241 0
-36 -274 0
-259 -274 0
-36 -259 0
-147 -224 0
-224 -242 0
-156 -224 0
-224 -285 0
-210 -224 0
-147 -242 0
-147 -156 0
-147 -285 0
-147 -210 0
-156 -242 0
-242 -285 0
-210 -242 0
-156 -285 0
-156 -210 0
-210 -285 0
-136 -291 0
-291 -294 0
-47 -291 0
-291 -297 0
-143 -291 0
-136 -294 0
-47 -136 0
-136 -297 0
-136 -143 0
-47 -294 0
-294 -297 0
-143 -294 0
-47 -297 0
-47 -143 0
-143 -297 0
-119 -226 0
-26 -119 0
-119 -245 0
-71 -119 0
-111 -119 0
-26 -226 0
-226 -245 0
-71 -226 0
-111 -226 0
-26 -245 0
-26 -71 0
-26 -111 0
-71 -245 0
-111 -245 0
-71 -111 0
-96 -139 0
-96 -228 0
-6 -96 0
-96 -243 0
-96 -246 0
-139 -228 0
-6 -139 0
-139 -243 0
-139 -246 0
-6 -228 0
-228 -243 0
-228 -246 0
-6 -243 0
-6 -246 0
-243 -246 0
